7
19
0 9 18 27 36 56 65 74 83 93 94 85 84 75 66 57 47 38 29
7
0 78 97 98 89 69 49
15
0 1 11 12 43 35 26 16 17 8 7 6 5 4 3
17
0 10 20 30 40 59 68 77 87 96 95 86 76 67 58 48 39
16
0 13 14 15 24 25 34 44 52 80 88 70 61 41 31 21
14
0 32 50 60 79 71 62 53 51 42 33 23 22 2
17
0 45 54 63 72 81 90 91 92 82 73 64 55 46 37 28 19
